Al Cu O Si
1.0
 -4.936500000000   2.627000000000   4.385000000000
  4.936500000000  -2.627000000000   4.385000000000
  4.936500000000   2.627000000000  -4.385000000000
Al Cu O Si
  2   2   9   2
Selective dynamics
Direct
  0.650700000000   0.743500000000   0.592800000000  F F F
  0.650700000000   0.057900000000   0.907200000000  F F F
  0.405099293718   0.612349695935   0.024875060871  T T T
  0.467124109844   0.267055402857   0.118885506502  T T T
  0.602300000000   0.852300000000   0.750000000000  F F F
  0.397700000000   0.147700000000   0.250000000000  F F F
  0.500000000000   0.810000000000   0.310000000000  F F F
  0.000000000000   0.190000000000   0.190000000000  F F F
  0.500000000000   0.190000000000   0.690000000000  F F F
  0.000000000000   0.810000000000   0.810000000000  F F F
  0.500000000000   0.500000000000   0.500000000000  F F F
  0.500000000000   0.000000000000   0.000000000000  F F F
  0.406715687218   0.424533398789  -0.029648337689  T T T
  0.349300000000   0.942100000000   0.092800000000  F F F
  0.349300000000   0.256500000000   0.407200000000  F F F
