Al Cu O Si                              
   1.00000000000000     
     6.2740000000000000  -10.8668867666869993    0.0000000000000000
     6.2740000000000000   10.8668867666869993    0.0000000000000000
     0.0000000000000000    0.0000000000000000   20.7890000000000015
   Al   Cu   O    Si
     9     2    97    39
Selective dynamics
Direct
  0.4183000000000021  0.3293999999999997  0.6253999999999991   F   F   F
  0.6706000000000003  0.0889000000000024  0.6253999999999991   F   F   F
  0.3293999999999997  0.4183000000000021  0.1253999999999991   F   F   F
  0.4183000000000021  0.3293999999999997  0.8746000000000009   F   F   F
  0.3293999999999997  0.4183000000000021  0.3746000000000009   F   F   F
  0.0035000000000025  0.2501000000000033  0.2500000000000000   F   F   F
  0.2501000000000033  0.0035000000000025  0.7500000000000000   F   F   F
  0.0000000000000000  0.2477999999999980  0.5000000000000000   F   F   F
  0.2477999999999980  0.0000000000000000  0.5000000000000000   F   F   F
  0.5862821096121690  0.4690673353584006  0.4242101900449541   T   T   T
  0.8585887801457015  0.5590975879980273  0.3477985196208059   T   T   T
  0.6608000000000018  0.6953000000000031  0.0606000000000009   F   F   F
  0.3046999999999969  0.9654999999999987  0.0606000000000009   F   F   F
  0.0345000000000013  0.3391999999999982  0.0606000000000009   F   F   F
  0.3391999999999982  0.3046999999999969  0.5606000000000009   F   F   F
  0.6953000000000031  0.0345000000000013  0.5606000000000009   F   F   F
  0.9654999999999987  0.6608000000000018  0.5606000000000009   F   F   F
  0.3046999999999969  0.3391999999999982  0.0606000000000009   F   F   F
  0.0345000000000013  0.6953000000000031  0.0606000000000009   F   F   F
  0.6608000000000018  0.9654999999999987  0.0606000000000009   F   F   F
  0.6953000000000031  0.6608000000000018  0.5606000000000009   F   F   F
  0.9654999999999987  0.3046999999999969  0.5606000000000009   F   F   F
  0.3391999999999982  0.0345000000000013  0.5606000000000009   F   F   F
  0.3391999999999982  0.3046999999999969  0.9393999999999991   F   F   F
  0.6953000000000031  0.0345000000000013  0.9393999999999991   F   F   F
  0.9654999999999987  0.6608000000000018  0.9393999999999991   F   F   F
  0.6608000000000018  0.6953000000000031  0.4393999999999991   F   F   F
  0.3046999999999969  0.9654999999999987  0.4393999999999991   F   F   F
  0.0345000000000013  0.3391999999999982  0.4393999999999991   F   F   F
  0.6953000000000031  0.6608000000000018  0.9393999999999991   F   F   F
  0.9654999999999987  0.3046999999999969  0.9393999999999991   F   F   F
  0.3391999999999982  0.0345000000000013  0.9393999999999991   F   F   F
  0.3046999999999969  0.3391999999999982  0.4393999999999991   F   F   F
  0.0345000000000013  0.6953000000000031  0.4393999999999991   F   F   F
  0.6608000000000018  0.9654999999999987  0.4393999999999991   F   F   F
  0.6679999999999993  0.6912000000000020  0.1867999999999981   F   F   F
  0.3087999999999980  0.9767999999999972  0.1867999999999981   F   F   F
  0.0232000000000028  0.3320000000000007  0.1867999999999981   F   F   F
  0.3320000000000007  0.3087999999999980  0.6867999999999981   F   F   F
  0.6912000000000020  0.0232000000000028  0.6867999999999981   F   F   F
  0.9767999999999972  0.6679999999999993  0.6867999999999981   F   F   F
  0.3087999999999980  0.3320000000000007  0.1867999999999981   F   F   F
  0.0232000000000028  0.6912000000000020  0.1867999999999981   F   F   F
  0.6679999999999993  0.9767999999999972  0.1867999999999981   F   F   F
  0.6912000000000020  0.6679999999999993  0.6867999999999981   F   F   F
  0.9767999999999972  0.3087999999999980  0.6867999999999981   F   F   F
  0.3320000000000007  0.0232000000000028  0.6867999999999981   F   F   F
  0.3320000000000007  0.3087999999999980  0.8132000000000019   F   F   F
  0.6912000000000020  0.0232000000000028  0.8132000000000019   F   F   F
  0.9767999999999972  0.6679999999999993  0.8132000000000019   F   F   F
  0.6679999999999993  0.6912000000000020  0.3132000000000019   F   F   F
  0.3087999999999980  0.9767999999999972  0.3132000000000019   F   F   F
  0.0232000000000028  0.3320000000000007  0.3132000000000019   F   F   F
  0.6912000000000020  0.6679999999999993  0.8132000000000019   F   F   F
  0.9767999999999972  0.3087999999999980  0.8132000000000019   F   F   F
  0.3320000000000007  0.0232000000000028  0.8132000000000019   F   F   F
  0.3087999999999980  0.3320000000000007  0.3132000000000019   F   F   F
  0.0232000000000028  0.6912000000000020  0.3132000000000019   F   F   F
  0.6679999999999993  0.9767999999999972  0.3132000000000019   F   F   F
  0.5302999999999969  0.7652000000000001  0.1287999999999982   F   F   F
  0.2347999999999999  0.7650999999999968  0.1287999999999982   F   F   F
  0.2349000000000032  0.4697000000000031  0.1287999999999982   F   F   F
  0.4697000000000031  0.2347999999999999  0.6287999999999982   F   F   F
  0.7652000000000001  0.2349000000000032  0.6287999999999982   F   F   F
  0.7650999999999968  0.5302999999999969  0.6287999999999982   F   F   F
  0.4697000000000031  0.2347999999999999  0.8712000000000018   F   F   F
  0.7652000000000001  0.2349000000000032  0.8712000000000018   F   F   F
  0.7650999999999968  0.5302999999999969  0.8712000000000018   F   F   F
  0.5302999999999969  0.7652000000000001  0.3712000000000018   F   F   F
  0.2347999999999999  0.7650999999999968  0.3712000000000018   F   F   F
  0.2349000000000032  0.4697000000000031  0.3712000000000018   F   F   F
  0.4684999999999988  0.5313999999999979  0.1253000000000029   F   F   F
  0.4686000000000021  0.9371000000000009  0.1253000000000029   F   F   F
  0.0628999999999991  0.5315000000000012  0.1253000000000029   F   F   F
  0.5315000000000012  0.4686000000000021  0.6253000000000029   F   F   F
  0.5313999999999979  0.0628999999999991  0.6253000000000029   F   F   F
  0.9371000000000009  0.4684999999999988  0.6253000000000029   F   F   F
  0.5315000000000012  0.4686000000000021  0.8746999999999971   F   F   F
  0.5313999999999979  0.0628999999999991  0.8746999999999971   F   F   F
  0.9371000000000009  0.4684999999999988  0.8746999999999971   F   F   F
  0.4684999999999988  0.5313999999999979  0.3746999999999971   F   F   F
  0.4686000000000021  0.9371000000000009  0.3746999999999971   F   F   F
  0.0628999999999991  0.5315000000000012  0.3746999999999971   F   F   F
  0.1013000000000019  0.8986999999999981  0.2500000000000000   F   F   F
  0.1013000000000019  0.2025999999999968  0.2500000000000000   F   F   F
  0.7974000000000032  0.8986999999999981  0.2500000000000000   F   F   F
  0.8986999999999981  0.1013000000000019  0.7500000000000000   F   F   F
  0.8986999999999981  0.7974000000000032  0.7500000000000000   F   F   F
  0.2025999999999968  0.1013000000000019  0.7500000000000000   F   F   F
  0.2683999999999997  0.1341999999999999  0.2500000000000000   F   F   F
  0.8658000000000001  0.1341999999999999  0.2500000000000000   F   F   F
  0.8658000000000001  0.7316000000000003  0.2500000000000000   F   F   F
  0.7316000000000003  0.8658000000000001  0.7500000000000000   F   F   F
  0.1341999999999999  0.8658000000000001  0.7500000000000000   F   F   F
  0.1341999999999999  0.2683999999999997  0.7500000000000000   F   F   F
  0.1159000000000034  0.8841999999999999  0.9819000000000031   F   F   F
  0.1158000000000001  0.2316999999999965  0.9819000000000031   F   F   F
  0.7682999999999964  0.8840999999999966  0.9819000000000031   F   F   F
  0.8840999999999966  0.1158000000000001  0.4819000000000031   F   F   F
  0.8841999999999999  0.7682999999999964  0.4819000000000031   F   F   F
  0.2316999999999965  0.1159000000000034  0.4819000000000031   F   F   F
  0.8840999999999966  0.1158000000000001  0.0180999999999969   F   F   F
  0.8841999999999999  0.7682999999999964  0.0180999999999969   F   F   F
  0.2316999999999965  0.1159000000000034  0.0180999999999969   F   F   F
  0.1159000000000034  0.8841999999999999  0.5180999999999969   F   F   F
  0.1158000000000001  0.2316999999999965  0.5180999999999969   F   F   F
  0.7682999999999964  0.8840999999999966  0.5180999999999969   F   F   F
  0.7164713740635634  0.4616667218477152  0.3994878935798157   T   T   T
  0.5816999999999979  0.6706000000000003  0.1253999999999991   F   F   F
  0.3293999999999997  0.9110999999999976  0.1253999999999991   F   F   F
  0.0889000000000024  0.4183000000000021  0.1253999999999991   F   F   F
  0.9110999999999976  0.5816999999999979  0.6253999999999991   F   F   F
  0.0889000000000024  0.6706000000000003  0.1253999999999991   F   F   F
  0.5816999999999979  0.9110999999999976  0.1253999999999991   F   F   F
  0.6706000000000003  0.5816999999999979  0.6253999999999991   F   F   F
  0.9110999999999976  0.3293999999999997  0.6253999999999991   F   F   F
  0.4183000000000021  0.0889000000000024  0.6253999999999991   F   F   F
  0.6706000000000003  0.0889000000000024  0.8746000000000009   F   F   F
  0.9110999999999976  0.5816999999999979  0.8746000000000009   F   F   F
  0.5816999999999979  0.6706000000000003  0.3746000000000009   F   F   F
  0.3293999999999997  0.9110999999999976  0.3746000000000009   F   F   F
  0.0889000000000024  0.4183000000000021  0.3746000000000009   F   F   F
  0.6706000000000003  0.5816999999999979  0.8746000000000009   F   F   F
  0.9110999999999976  0.3293999999999997  0.8746000000000009   F   F   F
  0.4183000000000021  0.0889000000000024  0.8746000000000009   F   F   F
  0.0889000000000024  0.6706000000000003  0.3746000000000009   F   F   F
  0.5816999999999979  0.9110999999999976  0.3746000000000009   F   F   F
  0.2466000000000008  0.9964999999999975  0.2500000000000000   F   F   F
  0.7498999999999967  0.7533999999999992  0.2500000000000000   F   F   F
  0.7533999999999992  0.0035000000000025  0.7500000000000000   F   F   F
  0.9964999999999975  0.7498999999999967  0.7500000000000000   F   F   F
  0.2501000000000033  0.2466000000000008  0.7500000000000000   F   F   F
  0.0035000000000025  0.7533999999999992  0.2500000000000000   F   F   F
  0.7498999999999967  0.9964999999999975  0.2500000000000000   F   F   F
  0.2466000000000008  0.2501000000000033  0.2500000000000000   F   F   F
  0.9964999999999975  0.2466000000000008  0.7500000000000000   F   F   F
  0.7533999999999992  0.7498999999999967  0.7500000000000000   F   F   F
  0.2477999999999980  0.0000000000000000  0.0000000000000000   F   F   F
  0.0000000000000000  0.2477999999999980  0.0000000000000000   F   F   F
  0.7522000000000020  0.7522000000000020  0.0000000000000000   F   F   F
  0.7522000000000020  0.0000000000000000  0.5000000000000000   F   F   F
  0.0000000000000000  0.7522000000000020  0.5000000000000000   F   F   F
  0.2477999999999980  0.2477999999999980  0.5000000000000000   F   F   F
  0.0000000000000000  0.7522000000000020  0.0000000000000000   F   F   F
  0.7522000000000020  0.0000000000000000  0.0000000000000000   F   F   F
  0.2477999999999980  0.2477999999999980  0.0000000000000000   F   F   F
  0.7522000000000020  0.7522000000000020  0.5000000000000000   F   F   F
 
  0.00000000E+00  0.00000000E+00  0.00000000E+00
  0.00000000E+00  0.00000000E+00  0.00000000E+00
  0.00000000E+00  0.00000000E+00  0.00000000E+00
  0.00000000E+00  0.00000000E+00  0.00000000E+00
  0.00000000E+00  0.00000000E+00  0.00000000E+00
  0.00000000E+00  0.00000000E+00  0.00000000E+00
  0.00000000E+00  0.00000000E+00  0.00000000E+00
  0.00000000E+00  0.00000000E+00  0.00000000E+00
  0.00000000E+00  0.00000000E+00  0.00000000E+00
  0.00000000E+00  0.00000000E+00  0.00000000E+00
  0.00000000E+00  0.00000000E+00  0.00000000E+00
  0.00000000E+00  0.00000000E+00  0.00000000E+00
  0.00000000E+00  0.00000000E+00  0.00000000E+00
  0.00000000E+00  0.00000000E+00  0.00000000E+00
  0.00000000E+00  0.00000000E+00  0.00000000E+00
  0.00000000E+00  0.00000000E+00  0.00000000E+00
  0.00000000E+00  0.00000000E+00  0.00000000E+00
  0.00000000E+00  0.00000000E+00  0.00000000E+00
  0.00000000E+00  0.00000000E+00  0.00000000E+00
  0.00000000E+00  0.00000000E+00  0.00000000E+00
  0.00000000E+00  0.00000000E+00  0.00000000E+00
  0.00000000E+00  0.00000000E+00  0.00000000E+00
  0.00000000E+00  0.00000000E+00  0.00000000E+00
  0.00000000E+00  0.00000000E+00  0.00000000E+00
  0.00000000E+00  0.00000000E+00  0.00000000E+00
  0.00000000E+00  0.00000000E+00  0.00000000E+00
  0.00000000E+00  0.00000000E+00  0.00000000E+00
  0.00000000E+00  0.00000000E+00  0.00000000E+00
  0.00000000E+00  0.00000000E+00  0.00000000E+00
  0.00000000E+00  0.00000000E+00  0.00000000E+00
  0.00000000E+00  0.00000000E+00  0.00000000E+00
  0.00000000E+00  0.00000000E+00  0.00000000E+00
  0.00000000E+00  0.00000000E+00  0.00000000E+00
  0.00000000E+00  0.00000000E+00  0.00000000E+00
  0.00000000E+00  0.00000000E+00  0.00000000E+00
  0.00000000E+00  0.00000000E+00  0.00000000E+00
  0.00000000E+00  0.00000000E+00  0.00000000E+00
  0.00000000E+00  0.00000000E+00  0.00000000E+00
  0.00000000E+00  0.00000000E+00  0.00000000E+00
  0.00000000E+00  0.00000000E+00  0.00000000E+00
  0.00000000E+00  0.00000000E+00  0.00000000E+00
  0.00000000E+00  0.00000000E+00  0.00000000E+00
  0.00000000E+00  0.00000000E+00  0.00000000E+00
  0.00000000E+00  0.00000000E+00  0.00000000E+00
  0.00000000E+00  0.00000000E+00  0.00000000E+00
  0.00000000E+00  0.00000000E+00  0.00000000E+00
  0.00000000E+00  0.00000000E+00  0.00000000E+00
  0.00000000E+00  0.00000000E+00  0.00000000E+00
  0.00000000E+00  0.00000000E+00  0.00000000E+00
  0.00000000E+00  0.00000000E+00  0.00000000E+00
  0.00000000E+00  0.00000000E+00  0.00000000E+00
  0.00000000E+00  0.00000000E+00  0.00000000E+00
  0.00000000E+00  0.00000000E+00  0.00000000E+00
  0.00000000E+00  0.00000000E+00  0.00000000E+00
  0.00000000E+00  0.00000000E+00  0.00000000E+00
  0.00000000E+00  0.00000000E+00  0.00000000E+00
  0.00000000E+00  0.00000000E+00  0.00000000E+00
  0.00000000E+00  0.00000000E+00  0.00000000E+00
  0.00000000E+00  0.00000000E+00  0.00000000E+00
  0.00000000E+00  0.00000000E+00  0.00000000E+00
  0.00000000E+00  0.00000000E+00  0.00000000E+00
  0.00000000E+00  0.00000000E+00  0.00000000E+00
  0.00000000E+00  0.00000000E+00  0.00000000E+00
  0.00000000E+00  0.00000000E+00  0.00000000E+00
  0.00000000E+00  0.00000000E+00  0.00000000E+00
  0.00000000E+00  0.00000000E+00  0.00000000E+00
  0.00000000E+00  0.00000000E+00  0.00000000E+00
  0.00000000E+00  0.00000000E+00  0.00000000E+00
  0.00000000E+00  0.00000000E+00  0.00000000E+00
  0.00000000E+00  0.00000000E+00  0.00000000E+00
  0.00000000E+00  0.00000000E+00  0.00000000E+00
  0.00000000E+00  0.00000000E+00  0.00000000E+00
  0.00000000E+00  0.00000000E+00  0.00000000E+00
  0.00000000E+00  0.00000000E+00  0.00000000E+00
  0.00000000E+00  0.00000000E+00  0.00000000E+00
  0.00000000E+00  0.00000000E+00  0.00000000E+00
  0.00000000E+00  0.00000000E+00  0.00000000E+00
  0.00000000E+00  0.00000000E+00  0.00000000E+00
  0.00000000E+00  0.00000000E+00  0.00000000E+00
  0.00000000E+00  0.00000000E+00  0.00000000E+00
  0.00000000E+00  0.00000000E+00  0.00000000E+00
  0.00000000E+00  0.00000000E+00  0.00000000E+00
  0.00000000E+00  0.00000000E+00  0.00000000E+00
  0.00000000E+00  0.00000000E+00  0.00000000E+00
  0.00000000E+00  0.00000000E+00  0.00000000E+00
  0.00000000E+00  0.00000000E+00  0.00000000E+00
  0.00000000E+00  0.00000000E+00  0.00000000E+00
  0.00000000E+00  0.00000000E+00  0.00000000E+00
  0.00000000E+00  0.00000000E+00  0.00000000E+00
  0.00000000E+00  0.00000000E+00  0.00000000E+00
  0.00000000E+00  0.00000000E+00  0.00000000E+00
  0.00000000E+00  0.00000000E+00  0.00000000E+00
  0.00000000E+00  0.00000000E+00  0.00000000E+00
  0.00000000E+00  0.00000000E+00  0.00000000E+00
  0.00000000E+00  0.00000000E+00  0.00000000E+00
  0.00000000E+00  0.00000000E+00  0.00000000E+00
  0.00000000E+00  0.00000000E+00  0.00000000E+00
  0.00000000E+00  0.00000000E+00  0.00000000E+00
  0.00000000E+00  0.00000000E+00  0.00000000E+00
  0.00000000E+00  0.00000000E+00  0.00000000E+00
  0.00000000E+00  0.00000000E+00  0.00000000E+00
  0.00000000E+00  0.00000000E+00  0.00000000E+00
  0.00000000E+00  0.00000000E+00  0.00000000E+00
  0.00000000E+00  0.00000000E+00  0.00000000E+00
  0.00000000E+00  0.00000000E+00  0.00000000E+00
  0.00000000E+00  0.00000000E+00  0.00000000E+00
  0.00000000E+00  0.00000000E+00  0.00000000E+00
  0.00000000E+00  0.00000000E+00  0.00000000E+00
  0.00000000E+00  0.00000000E+00  0.00000000E+00
  0.00000000E+00  0.00000000E+00  0.00000000E+00
  0.00000000E+00  0.00000000E+00  0.00000000E+00
  0.00000000E+00  0.00000000E+00  0.00000000E+00
  0.00000000E+00  0.00000000E+00  0.00000000E+00
  0.00000000E+00  0.00000000E+00  0.00000000E+00
  0.00000000E+00  0.00000000E+00  0.00000000E+00
  0.00000000E+00  0.00000000E+00  0.00000000E+00
  0.00000000E+00  0.00000000E+00  0.00000000E+00
  0.00000000E+00  0.00000000E+00  0.00000000E+00
  0.00000000E+00  0.00000000E+00  0.00000000E+00
  0.00000000E+00  0.00000000E+00  0.00000000E+00
  0.00000000E+00  0.00000000E+00  0.00000000E+00
  0.00000000E+00  0.00000000E+00  0.00000000E+00
  0.00000000E+00  0.00000000E+00  0.00000000E+00
  0.00000000E+00  0.00000000E+00  0.00000000E+00
  0.00000000E+00  0.00000000E+00  0.00000000E+00
  0.00000000E+00  0.00000000E+00  0.00000000E+00
  0.00000000E+00  0.00000000E+00  0.00000000E+00
  0.00000000E+00  0.00000000E+00  0.00000000E+00
  0.00000000E+00  0.00000000E+00  0.00000000E+00
  0.00000000E+00  0.00000000E+00  0.00000000E+00
  0.00000000E+00  0.00000000E+00  0.00000000E+00
  0.00000000E+00  0.00000000E+00  0.00000000E+00
  0.00000000E+00  0.00000000E+00  0.00000000E+00
  0.00000000E+00  0.00000000E+00  0.00000000E+00
  0.00000000E+00  0.00000000E+00  0.00000000E+00
  0.00000000E+00  0.00000000E+00  0.00000000E+00
  0.00000000E+00  0.00000000E+00  0.00000000E+00
  0.00000000E+00  0.00000000E+00  0.00000000E+00
  0.00000000E+00  0.00000000E+00  0.00000000E+00
  0.00000000E+00  0.00000000E+00  0.00000000E+00
  0.00000000E+00  0.00000000E+00  0.00000000E+00
  0.00000000E+00  0.00000000E+00  0.00000000E+00
  0.00000000E+00  0.00000000E+00  0.00000000E+00
  0.00000000E+00  0.00000000E+00  0.00000000E+00
  0.00000000E+00  0.00000000E+00  0.00000000E+00
  0.00000000E+00  0.00000000E+00  0.00000000E+00
  0.00000000E+00  0.00000000E+00  0.00000000E+00
