Al Cu O Si
1.0
  6.274000000000 -10.866886766687   0.000000000000
  6.274000000000  10.866886766687   0.000000000000
  0.000000000000   0.000000000000  20.789000000000
Al Cu O Si
  9   2  97  39
Selective dynamics
Direct
  0.418300000000   0.329400000000   0.625400000000  F F F
  0.670600000000   0.088900000000   0.625400000000  F F F
  0.329400000000   0.418300000000   0.125400000000  F F F
  0.418300000000   0.329400000000   0.874600000000  F F F
  0.329400000000   0.418300000000   0.374600000000  F F F
  0.003500000000   0.250100000000   0.250000000000  F F F
  0.250100000000   0.003500000000   0.750000000000  F F F
 -0.000000000000   0.247800000000   0.500000000000  F F F
  0.247800000000  -0.000000000000   0.500000000000  F F F
  0.752475000247   0.603624999753   0.416882119448  T T T
  0.785188844930   0.570911155070   0.279945806087  T T T
  0.660800000000   0.695300000000   0.060600000000  F F F
  0.304700000000   0.965500000000   0.060600000000  F F F
  0.034500000000   0.339200000000   0.060600000000  F F F
  0.339200000000   0.304700000000   0.560600000000  F F F
  0.695300000000   0.034500000000   0.560600000000  F F F
  0.965500000000   0.660800000000   0.560600000000  F F F
  0.304700000000   0.339200000000   0.060600000000  F F F
  0.034500000000   0.695300000000   0.060600000000  F F F
  0.660800000000   0.965500000000   0.060600000000  F F F
  0.695300000000   0.660800000000   0.560600000000  F F F
  0.965500000000   0.304700000000   0.560600000000  F F F
  0.339200000000   0.034500000000   0.560600000000  F F F
  0.339200000000   0.304700000000   0.939400000000  F F F
  0.695300000000   0.034500000000   0.939400000000  F F F
  0.965500000000   0.660800000000   0.939400000000  F F F
  0.660800000000   0.695300000000   0.439400000000  F F F
  0.304700000000   0.965500000000   0.439400000000  F F F
  0.034500000000   0.339200000000   0.439400000000  F F F
  0.695300000000   0.660800000000   0.939400000000  F F F
  0.965500000000   0.304700000000   0.939400000000  F F F
  0.339200000000   0.034500000000   0.939400000000  F F F
  0.304700000000   0.339200000000   0.439400000000  F F F
  0.034500000000   0.695300000000   0.439400000000  F F F
  0.660800000000   0.965500000000   0.439400000000  F F F
  0.668000000000   0.691200000000   0.186800000000  F F F
  0.308800000000   0.976800000000   0.186800000000  F F F
  0.023200000000   0.332000000000   0.186800000000  F F F
  0.332000000000   0.308800000000   0.686800000000  F F F
  0.691200000000   0.023200000000   0.686800000000  F F F
  0.976800000000   0.668000000000   0.686800000000  F F F
  0.308800000000   0.332000000000   0.186800000000  F F F
  0.023200000000   0.691200000000   0.186800000000  F F F
  0.668000000000   0.976800000000   0.186800000000  F F F
  0.691200000000   0.668000000000   0.686800000000  F F F
  0.976800000000   0.308800000000   0.686800000000  F F F
  0.332000000000   0.023200000000   0.686800000000  F F F
  0.332000000000   0.308800000000   0.813200000000  F F F
  0.691200000000   0.023200000000   0.813200000000  F F F
  0.976800000000   0.668000000000   0.813200000000  F F F
  0.668000000000   0.691200000000   0.313200000000  F F F
  0.308800000000   0.976800000000   0.313200000000  F F F
  0.023200000000   0.332000000000   0.313200000000  F F F
  0.691200000000   0.668000000000   0.813200000000  F F F
  0.976800000000   0.308800000000   0.813200000000  F F F
  0.332000000000   0.023200000000   0.813200000000  F F F
  0.308800000000   0.332000000000   0.313200000000  F F F
  0.023200000000   0.691200000000   0.313200000000  F F F
  0.668000000000   0.976800000000   0.313200000000  F F F
  0.530300000000   0.765200000000   0.128800000000  F F F
  0.234800000000   0.765100000000   0.128800000000  F F F
  0.234900000000   0.469700000000   0.128800000000  F F F
  0.469700000000   0.234800000000   0.628800000000  F F F
  0.765200000000   0.234900000000   0.628800000000  F F F
  0.765100000000   0.530300000000   0.628800000000  F F F
  0.469700000000   0.234800000000   0.871200000000  F F F
  0.765200000000   0.234900000000   0.871200000000  F F F
  0.765100000000   0.530300000000   0.871200000000  F F F
  0.530300000000   0.765200000000   0.371200000000  F F F
  0.234800000000   0.765100000000   0.371200000000  F F F
  0.234900000000   0.469700000000   0.371200000000  F F F
  0.468500000000   0.531400000000   0.125300000000  F F F
  0.468600000000   0.937100000000   0.125300000000  F F F
  0.062900000000   0.531500000000   0.125300000000  F F F
  0.531500000000   0.468600000000   0.625300000000  F F F
  0.531400000000   0.062900000000   0.625300000000  F F F
  0.937100000000   0.468500000000   0.625300000000  F F F
  0.531500000000   0.468600000000   0.874700000000  F F F
  0.531400000000   0.062900000000   0.874700000000  F F F
  0.937100000000   0.468500000000   0.874700000000  F F F
  0.468500000000   0.531400000000   0.374700000000  F F F
  0.468600000000   0.937100000000   0.374700000000  F F F
  0.062900000000   0.531500000000   0.374700000000  F F F
  0.101300000000   0.898700000000   0.250000000000  F F F
  0.101300000000   0.202600000000   0.250000000000  F F F
  0.797400000000   0.898700000000   0.250000000000  F F F
  0.898700000000   0.101300000000   0.750000000000  F F F
  0.898700000000   0.797400000000   0.750000000000  F F F
  0.202600000000   0.101300000000   0.750000000000  F F F
  0.268400000000   0.134200000000   0.250000000000  F F F
  0.865800000000   0.134200000000   0.250000000000  F F F
  0.865800000000   0.731600000000   0.250000000000  F F F
  0.731600000000   0.865800000000   0.750000000000  F F F
  0.134200000000   0.865800000000   0.750000000000  F F F
  0.134200000000   0.268400000000   0.750000000000  F F F
  0.115900000000   0.884200000000   0.981900000000  F F F
  0.115800000000   0.231700000000   0.981900000000  F F F
  0.768300000000   0.884100000000   0.981900000000  F F F
  0.884100000000   0.115800000000   0.481900000000  F F F
  0.884200000000   0.768300000000   0.481900000000  F F F
  0.231700000000   0.115900000000   0.481900000000  F F F
  0.884100000000   0.115800000000   0.018100000000  F F F
  0.884200000000   0.768300000000   0.018100000000  F F F
  0.231700000000   0.115900000000   0.018100000000  F F F
  0.115900000000   0.884200000000   0.518100000000  F F F
  0.115800000000   0.231700000000   0.518100000000  F F F
  0.768300000000   0.884100000000   0.518100000000  F F F
  0.796369907606   0.560402452819   0.356293126341  T T T
  0.581700000000   0.670600000000   0.125400000000  F F F
  0.329400000000   0.911100000000   0.125400000000  F F F
  0.088900000000   0.418300000000   0.125400000000  F F F
  0.911100000000   0.581700000000   0.625400000000  F F F
  0.088900000000   0.670600000000   0.125400000000  F F F
  0.581700000000   0.911100000000   0.125400000000  F F F
  0.670600000000   0.581700000000   0.625400000000  F F F
  0.911100000000   0.329400000000   0.625400000000  F F F
  0.418300000000   0.088900000000   0.625400000000  F F F
  0.670600000000   0.088900000000   0.874600000000  F F F
  0.911100000000   0.581700000000   0.874600000000  F F F
  0.581700000000   0.670600000000   0.374600000000  F F F
  0.329400000000   0.911100000000   0.374600000000  F F F
  0.088900000000   0.418300000000   0.374600000000  F F F
  0.670600000000   0.581700000000   0.874600000000  F F F
  0.911100000000   0.329400000000   0.874600000000  F F F
  0.418300000000   0.088900000000   0.874600000000  F F F
  0.088900000000   0.670600000000   0.374600000000  F F F
  0.581700000000   0.911100000000   0.374600000000  F F F
  0.246600000000   0.996500000000   0.250000000000  F F F
  0.749900000000   0.753400000000   0.250000000000  F F F
  0.753400000000   0.003500000000   0.750000000000  F F F
  0.996500000000   0.749900000000   0.750000000000  F F F
  0.250100000000   0.246600000000   0.750000000000  F F F
  0.003500000000   0.753400000000   0.250000000000  F F F
  0.749900000000   0.996500000000   0.250000000000  F F F
  0.246600000000   0.250100000000   0.250000000000  F F F
  0.996500000000   0.246600000000   0.750000000000  F F F
  0.753400000000   0.749900000000   0.750000000000  F F F
  0.247800000000  -0.000000000000   0.000000000000  F F F
 -0.000000000000   0.247800000000   0.000000000000  F F F
  0.752200000000   0.752200000000   0.000000000000  F F F
  0.752200000000  -0.000000000000   0.500000000000  F F F
 -0.000000000000   0.752200000000   0.500000000000  F F F
  0.247800000000   0.247800000000   0.500000000000  F F F
 -0.000000000000   0.752200000000   0.000000000000  F F F
  0.752200000000  -0.000000000000   0.000000000000  F F F
  0.247800000000   0.247800000000   0.000000000000  F F F
  0.752200000000   0.752200000000   0.500000000000  F F F
