Al Cu O Si H                            
   1.00000000000000     
     6.8384999999999998   -6.3034999999999997    0.0000000000000000
     6.8384999999999998    6.3034999999999997    0.0000000000000000
     0.0000000000000000    0.0000000000000000   18.4969999999999999
   Al   Cu   O    Si   H 
     5     2    49    19     1
Selective dynamics
Direct
  0.1495000000000033  0.0756999999999977  0.8335999999999970   F   F   F
  0.0756999999999977  0.1495000000000033  0.3335999999999970   F   F   F
  0.6582999999999970  0.1161000000000030  0.4393999999999991   F   F   F
  0.3224999999999980  0.1308999999999969  0.0521000000000029   F   F   F
  0.1308999999999969  0.3224999999999980  0.5521000000000029   F   F   F
  0.4756111526490017  0.0397768262130000  0.3288685208810023   F   F   F
  0.4407804390090035  0.0681412272110009  0.1848906242439980   F   F   F
  0.0000000000000000  0.0003999999999991  0.1614000000000004   F   F   F
  0.0003999999999991  0.0000000000000000  0.6614000000000004   F   F   F
  0.0003999999999991  0.0000000000000000  0.8385999999999996   F   F   F
  0.0000000000000000  0.0003999999999991  0.3385999999999996   F   F   F
  0.1011000000000024  0.1886999999999972  0.2500000000000000   F   F   F
  0.8113000000000028  0.8988999999999976  0.2500000000000000   F   F   F
  0.1886999999999972  0.1011000000000024  0.7500000000000000   F   F   F
  0.8988999999999976  0.8113000000000028  0.7500000000000000   F   F   F
  0.9737000000000009  0.2766999999999982  0.1293000000000006   F   F   F
  0.7233000000000018  0.0262999999999991  0.1293000000000006   F   F   F
  0.2766999999999982  0.9737000000000009  0.6293000000000006   F   F   F
  0.0262999999999991  0.7233000000000018  0.6293000000000006   F   F   F
  0.0262999999999991  0.7233000000000018  0.8706999999999994   F   F   F
  0.2766999999999982  0.9737000000000009  0.8706999999999994   F   F   F
  0.7233000000000018  0.0262999999999991  0.3706999999999994   F   F   F
  0.9737000000000009  0.2766999999999982  0.3706999999999994   F   F   F
  0.2287000000000035  0.1321000000000012  0.1253000000000029   F   F   F
  0.8678999999999988  0.7712999999999965  0.1253000000000029   F   F   F
  0.1321000000000012  0.2287000000000035  0.6253000000000029   F   F   F
  0.7712999999999965  0.8678999999999988  0.6253000000000029   F   F   F
  0.7712999999999965  0.8678999999999988  0.8746999999999971   F   F   F
  0.1321000000000012  0.2287000000000035  0.8746999999999971   F   F   F
  0.8678999999999988  0.7712999999999965  0.3746999999999971   F   F   F
  0.2287000000000035  0.1321000000000012  0.3746999999999971   F   F   F
  0.3143000000000029  0.9787000000000035  0.0116000000000014   F   F   F
  0.0212999999999965  0.6856999999999971  0.0116000000000014   F   F   F
  0.9787000000000035  0.3143000000000029  0.5116000000000014   F   F   F
  0.6856999999999971  0.0212999999999965  0.5116000000000014   F   F   F
  0.6856999999999971  0.0212999999999965  0.9883999999999986   F   F   F
  0.9787000000000035  0.3143000000000029  0.9883999999999986   F   F   F
  0.0212999999999965  0.6856999999999971  0.4883999999999986   F   F   F
  0.3143000000000029  0.9787000000000035  0.4883999999999986   F   F   F
  0.2635999999999967  0.7364000000000033  0.9468000000000032   F   F   F
  0.7364000000000033  0.2635999999999967  0.4468000000000032   F   F   F
  0.7364000000000033  0.2635999999999967  0.0531999999999968   F   F   F
  0.2635999999999967  0.7364000000000033  0.5531999999999968   F   F   F
  0.5122000000000000  0.8466000000000022  0.9281000000000006   F   F   F
  0.1533999999999978  0.4878000000000000  0.9281000000000006   F   F   F
  0.8466000000000022  0.5122000000000000  0.4281000000000006   F   F   F
  0.4878000000000000  0.1533999999999978  0.4281000000000006   F   F   F
  0.4878000000000000  0.1533999999999978  0.0718999999999994   F   F   F
  0.8466000000000022  0.5122000000000000  0.0718999999999994   F   F   F
  0.1533999999999978  0.4878000000000000  0.5718999999999994   F   F   F
  0.5122000000000000  0.8466000000000022  0.5718999999999994   F   F   F
  0.7404000000000011  0.7404000000000011  0.0000000000000000   F   F   F
  0.2595999999999989  0.2595999999999989  0.0000000000000000   F   F   F
  0.7404000000000011  0.7404000000000011  0.5000000000000000   F   F   F
  0.2595999999999989  0.2595999999999989  0.5000000000000000   F   F   F
  0.4350533314865050  0.9219325951767461  0.2526904190500335   T   T   T
  0.0756999999999977  0.1495000000000033  0.1664000000000030   F   F   F
  0.8504999999999967  0.9243000000000023  0.1664000000000030   F   F   F
  0.1495000000000033  0.0756999999999977  0.6664000000000030   F   F   F
  0.9243000000000023  0.8504999999999967  0.6664000000000030   F   F   F
  0.9243000000000023  0.8504999999999967  0.8335999999999970   F   F   F
  0.8504999999999967  0.9243000000000023  0.3335999999999970   F   F   F
  0.3417000000000030  0.8838999999999970  0.9393999999999991   F   F   F
  0.1161000000000030  0.6582999999999970  0.9393999999999991   F   F   F
  0.8838999999999970  0.3417000000000030  0.4393999999999991   F   F   F
  0.6582999999999970  0.1161000000000030  0.0606000000000009   F   F   F
  0.8838999999999970  0.3417000000000030  0.0606000000000009   F   F   F
  0.1161000000000030  0.6582999999999970  0.5606000000000009   F   F   F
  0.3417000000000030  0.8838999999999970  0.5606000000000009   F   F   F
  0.8691000000000031  0.6775000000000020  0.0521000000000029   F   F   F
  0.6775000000000020  0.8691000000000031  0.5521000000000029   F   F   F
  0.1308999999999969  0.3224999999999980  0.9478999999999971   F   F   F
  0.6775000000000020  0.8691000000000031  0.9478999999999971   F   F   F
  0.3224999999999980  0.1308999999999969  0.4478999999999971   F   F   F
  0.8691000000000031  0.6775000000000020  0.4478999999999971   F   F   F
  0.3367649821401937  0.8924704670900663  0.2581925349341622   T   T   T

