Al Cu O Si H                            
   1.00000000000000     
    -4.9364999999999997    2.6269999999999998    4.3849999999999998
     4.9364999999999997   -2.6269999999999998    4.3849999999999998
     4.9364999999999997    2.6269999999999998   -4.3849999999999998
   Al   Cu   O    Si   H 
     2     2     9     2     1
Selective dynamics
Direct
  0.6507000000000005  0.7434999999999974  0.5927999999999969   F   F   F
  0.6507000000000005  0.0578999999999965  0.9072000000000031   F   F   F
  0.2252396003080008  0.5645680189870035  0.9526349046980016   F   F   F
  0.4816306104849986  0.3402414331220029  0.9865629647020029   F   F   F
  0.6022999999999996  0.8522999999999996  0.7500000000000000   F   F   F
  0.3977000000000004  0.1477000000000004  0.2500000000000000   F   F   F
  0.5000000000000000  0.8100000000000023  0.3100000000000023   F   F   F
  0.0000000000000000  0.1899999999999977  0.1899999999999977   F   F   F
  0.5000000000000000  0.1899999999999977  0.6899999999999977   F   F   F
  0.0000000000000000  0.8100000000000023  0.8100000000000023   F   F   F
  0.5000000000000000  0.5000000000000000  0.5000000000000000   F   F   F
  0.5000000000000000  0.0000000000000000  0.0000000000000000   F   F   F
  0.1030828215663938  0.3579042837995352  0.6843275079691437   T   T   T
  0.3492999999999995  0.9421000000000035  0.0927999999999969   F   F   F
  0.3492999999999995  0.2565000000000026  0.4072000000000031   F   F   F
 -0.0572756788533919  0.2344118091174693  0.6084696781041502   T   T   T
 
  0.00000000E+00  0.00000000E+00  0.00000000E+00
  0.00000000E+00  0.00000000E+00  0.00000000E+00
  0.00000000E+00  0.00000000E+00  0.00000000E+00
  0.00000000E+00  0.00000000E+00  0.00000000E+00
  0.00000000E+00  0.00000000E+00  0.00000000E+00
  0.00000000E+00  0.00000000E+00  0.00000000E+00
  0.00000000E+00  0.00000000E+00  0.00000000E+00
  0.00000000E+00  0.00000000E+00  0.00000000E+00
  0.00000000E+00  0.00000000E+00  0.00000000E+00
  0.00000000E+00  0.00000000E+00  0.00000000E+00
  0.00000000E+00  0.00000000E+00  0.00000000E+00
  0.00000000E+00  0.00000000E+00  0.00000000E+00
  0.00000000E+00  0.00000000E+00  0.00000000E+00
  0.00000000E+00  0.00000000E+00  0.00000000E+00
  0.00000000E+00  0.00000000E+00  0.00000000E+00
  0.00000000E+00  0.00000000E+00  0.00000000E+00
