Al Cu O Si H
1.0
 -4.936500000000   2.627000000000   4.385000000000
  4.936500000000  -2.627000000000   4.385000000000
  4.936500000000   2.627000000000  -4.385000000000
Al Cu O Si H
  2   2   9   2   1
Selective dynamics
Direct
  0.650700000000   0.743500000000   0.592800000000  F F F
  0.650700000000   0.057900000000   0.907200000000  F F F
  0.225239600308   0.564568018987  -0.047365095302  F F F
  0.481630610485   0.340241433122  -0.013437035298  F F F
  0.602300000000   0.852300000000   0.750000000000  F F F
  0.397700000000   0.147700000000   0.250000000000  F F F
  0.500000000000   0.810000000000   0.310000000000  F F F
  0.000000000000   0.190000000000   0.190000000000  F F F
  0.500000000000   0.190000000000   0.690000000000  F F F
  0.000000000000   0.810000000000   0.810000000000  F F F
  0.500000000000   0.500000000000   0.500000000000  F F F
  0.500000000000   0.000000000000   0.000000000000  F F F
  0.123164595069   0.345461119985   0.697425321706  T T T
  0.349300000000   0.942100000000   0.092800000000  F F F
  0.349300000000   0.256500000000   0.407200000000  F F F
  0.043468895802   0.208718386142   0.736289105201  T T T
