Al Cu O Si
1.0
  6.838500000000  -6.303500000000   0.000000000000
  6.838500000000   6.303500000000   0.000000000000
  0.000000000000   0.000000000000  18.497000000000
Al Cu O Si
  5   2  49  19
Selective dynamics
Direct
  0.149500000000   0.075700000000   0.833600000000  F F F
  0.075700000000   0.149500000000   0.333600000000  F F F
  0.658300000000   0.116100000000   0.439400000000  F F F
  0.322500000000   0.130900000000   0.052100000000  F F F
  0.130900000000   0.322500000000   0.552100000000  F F F
  0.307128613362  -0.045370053599   0.330723973741  T T T
  0.293856313637  -0.064943467052   0.170320011717  T T T
  0.000000000000   0.000400000000   0.161400000000  F F F
  0.000400000000   0.000000000000   0.661400000000  F F F
  0.000400000000   0.000000000000   0.838600000000  F F F
  0.000000000000   0.000400000000   0.338600000000  F F F
  0.101100000000   0.188700000000   0.250000000000  F F F
  0.811300000000   0.898900000000   0.250000000000  F F F
  0.188700000000   0.101100000000   0.750000000000  F F F
  0.898900000000   0.811300000000   0.750000000000  F F F
  0.973700000000   0.276700000000   0.129300000000  F F F
  0.723300000000   0.026300000000   0.129300000000  F F F
  0.276700000000   0.973700000000   0.629300000000  F F F
  0.026300000000   0.723300000000   0.629300000000  F F F
  0.026300000000   0.723300000000   0.870700000000  F F F
  0.276700000000   0.973700000000   0.870700000000  F F F
  0.723300000000   0.026300000000   0.370700000000  F F F
  0.973700000000   0.276700000000   0.370700000000  F F F
  0.228700000000   0.132100000000   0.125300000000  F F F
  0.867900000000   0.771300000000   0.125300000000  F F F
  0.132100000000   0.228700000000   0.625300000000  F F F
  0.771300000000   0.867900000000   0.625300000000  F F F
  0.771300000000   0.867900000000   0.874700000000  F F F
  0.132100000000   0.228700000000   0.874700000000  F F F
  0.867900000000   0.771300000000   0.374700000000  F F F
  0.228700000000   0.132100000000   0.374700000000  F F F
  0.314300000000   0.978700000000   0.011600000000  F F F
  0.021300000000   0.685700000000   0.011600000000  F F F
  0.978700000000   0.314300000000   0.511600000000  F F F
  0.685700000000   0.021300000000   0.511600000000  F F F
  0.685700000000   0.021300000000   0.988400000000  F F F
  0.978700000000   0.314300000000   0.988400000000  F F F
  0.021300000000   0.685700000000   0.488400000000  F F F
  0.314300000000   0.978700000000   0.488400000000  F F F
  0.263600000000   0.736400000000   0.946800000000  F F F
  0.736400000000   0.263600000000   0.446800000000  F F F
  0.736400000000   0.263600000000   0.053200000000  F F F
  0.263600000000   0.736400000000   0.553200000000  F F F
  0.512200000000   0.846600000000   0.928100000000  F F F
  0.153400000000   0.487800000000   0.928100000000  F F F
  0.846600000000   0.512200000000   0.428100000000  F F F
  0.487800000000   0.153400000000   0.428100000000  F F F
  0.487800000000   0.153400000000   0.071900000000  F F F
  0.846600000000   0.512200000000   0.071900000000  F F F
  0.153400000000   0.487800000000   0.571900000000  F F F
  0.512200000000   0.846600000000   0.571900000000  F F F
  0.740400000000   0.740400000000   0.000000000000  F F F
  0.259600000000   0.259600000000   0.000000000000  F F F
  0.740400000000   0.740400000000   0.500000000000  F F F
  0.259600000000   0.259600000000   0.500000000000  F F F
  0.367866098668  -0.070564568608   0.249539348566  T T T
  0.075700000000   0.149500000000   0.166400000000  F F F
  0.850500000000   0.924300000000   0.166400000000  F F F
  0.149500000000   0.075700000000   0.666400000000  F F F
  0.924300000000   0.850500000000   0.666400000000  F F F
  0.924300000000   0.850500000000   0.833600000000  F F F
  0.850500000000   0.924300000000   0.333600000000  F F F
  0.341700000000   0.883900000000   0.939400000000  F F F
  0.116100000000   0.658300000000   0.939400000000  F F F
  0.883900000000   0.341700000000   0.439400000000  F F F
  0.658300000000   0.116100000000   0.060600000000  F F F
  0.883900000000   0.341700000000   0.060600000000  F F F
  0.116100000000   0.658300000000   0.560600000000  F F F
  0.341700000000   0.883900000000   0.560600000000  F F F
  0.869100000000   0.677500000000   0.052100000000  F F F
  0.677500000000   0.869100000000   0.552100000000  F F F
  0.130900000000   0.322500000000   0.947900000000  F F F
  0.677500000000   0.869100000000   0.947900000000  F F F
  0.322500000000   0.130900000000   0.447900000000  F F F
  0.869100000000   0.677500000000   0.447900000000  F F F
